1 51140576
2 51140576
3 51140576
4 51140576
5 51140576
6 51140576
7 51140576
8 51140576
9 51140576
10 51140576
11 51140576
12 51140576
13 51140576
14 51140576
15 51140576
16 51140576
17 51140576
18 51140576
19 51140576
20 51140576
21 51140576
22 51140576
23 51140576
24 51140576
25 51140576
26 51140576
27 51140576
28 51140576
29 51140576
30 51140576
